p tw 113 31641 2 
1 4 
1 6 
1 8 
1 10 
1 12 
1 14 
1 16 
1 18 
1 20 
1 22 
1 24 
1 26 
1 28 
1 30 
1 32 
1 34 
1 36 
1 38 
1 40 
1 42 
1 44 
1 46 
1 48 
1 50 
1 52 
1 54 
1 56 
1 58 
1 60 
1 62 
1 64 
1 66 
1 68 
1 70 
1 72 
1 74 
1 76 
1 78 
1 80 
1 82 
1 84 
1 86 
1 88 
1 90 
1 92 
1 94 
1 96 
1 98 
1 100 
1 102 
1 104 
1 106 
1 108 
1 110 
1 112 
2 3 
2 4 
2 5 
2 7 
2 8 
2 12 
2 14 
2 17 
2 22 
2 23 
2 27 
2 30 
2 35 
2 36 
2 37 
2 38 
2 41 
2 42 
2 43 
2 48 
2 50 
2 52 
2 54 
2 58 
2 59 
2 61 
2 62 
2 63 
2 64 
2 65 
2 66 
2 67 
2 68 
2 69 
2 71 
2 74 
2 77 
2 78 
2 80 
2 83 
2 85 
2 86 
2 87 
2 91 
2 94 
2 95 
2 97 
2 101 
2 102 
2 103 
2 104 
2 105 
2 107 
2 108 
2 112 
3 7 
3 10 
3 11 
3 12 
3 14 
3 16 
3 17 
3 19 
3 20 
3 21 
3 22 
3 25 
3 26 
3 27 
3 29 
3 30 
3 32 
3 33 
3 34 
3 35 
3 40 
3 41 
3 45 
3 46 
3 47 
3 48 
3 50 
3 52 
3 54 
3 56 
3 57 
3 58 
3 61 
3 71 
3 73 
3 74 
3 76 
3 77 
3 80 
3 82 
3 83 
3 85 
3 89 
3 90 
3 91 
3 93 
3 94 
3 97 
3 99 
3 100 
3 101 
3 107 
3 110 
3 111 
3 112 
4 5 
4 6 
4 7 
4 9 
4 10 
4 14 
4 16 
4 19 
4 24 
4 25 
4 29 
4 32 
4 37 
4 38 
4 39 
4 40 
4 43 
4 44 
4 45 
4 50 
4 52 
4 54 
4 56 
4 60 
4 61 
4 63 
4 64 
4 65 
4 66 
4 67 
4 68 
4 69 
4 70 
4 71 
4 73 
4 76 
4 79 
4 80 
4 82 
4 85 
4 87 
4 88 
4 89 
4 93 
4 96 
4 97 
4 99 
4 103 
4 104 
4 105 
4 106 
4 107 
4 109 
4 110 
5 9 
5 12 
5 13 
5 14 
5 16 
5 18 
5 19 
5 21 
5 22 
5 23 
5 24 
5 27 
5 28 
5 29 
5 31 
5 32 
5 34 
5 35 
5 36 
5 37 
5 42 
5 43 
5 47 
5 48 
5 49 
5 50 
5 52 
5 54 
5 56 
5 58 
5 59 
5 60 
5 63 
5 73 
5 75 
5 76 
5 78 
5 79 
5 82 
5 84 
5 85 
5 87 
5 91 
5 92 
5 93 
5 95 
5 96 
5 99 
5 101 
5 102 
5 103 
5 109 
5 112 
5 113 
6 7 
6 8 
6 9 
6 11 
6 12 
6 16 
6 18 
6 21 
6 26 
6 27 
6 31 
6 34 
6 39 
6 40 
6 41 
6 42 
6 45 
6 46 
6 47 
6 52 
6 54 
6 56 
6 58 
6 62 
6 63 
6 65 
6 66 
6 67 
6 68 
6 69 
6 70 
6 71 
6 72 
6 73 
6 75 
6 78 
6 81 
6 82 
6 84 
6 87 
6 89 
6 90 
6 91 
6 95 
6 98 
6 99 
6 101 
6 105 
6 106 
6 107 
6 108 
6 109 
6 111 
6 112 
7 11 
7 14 
7 15 
7 16 
7 18 
7 20 
7 21 
7 23 
7 24 
7 25 
7 26 
7 29 
7 30 
7 31 
7 33 
7 34 
7 36 
7 37 
7 38 
7 39 
7 44 
7 45 
7 49 
7 50 
7 51 
7 52 
7 54 
7 56 
7 58 
7 60 
7 61 
7 62 
7 65 
7 75 
7 77 
7 78 
7 80 
7 81 
7 84 
7 86 
7 87 
7 89 
7 93 
7 94 
7 95 
7 97 
7 98 
7 101 
7 103 
7 104 
7 105 
7 111 
8 9 
8 10 
8 11 
8 13 
8 14 
8 18 
8 20 
8 23 
8 28 
8 29 
8 33 
8 36 
8 41 
8 42 
8 43 
8 44 
8 47 
8 48 
8 49 
8 54 
8 56 
8 58 
8 60 
8 64 
8 65 
8 67 
8 68 
8 69 
8 70 
8 71 
8 72 
8 73 
8 74 
8 75 
8 77 
8 80 
8 83 
8 84 
8 86 
8 89 
8 91 
8 92 
8 93 
8 97 
8 100 
8 101 
8 103 
8 107 
8 108 
8 109 
8 110 
8 111 
8 113 
9 13 
9 16 
9 17 
9 18 
9 20 
9 22 
9 23 
9 25 
9 26 
9 27 
9 28 
9 31 
9 32 
9 33 
9 35 
9 36 
9 38 
9 39 
9 40 
9 41 
9 46 
9 47 
9 51 
9 52 
9 53 
9 54 
9 56 
9 58 
9 60 
9 62 
9 63 
9 64 
9 67 
9 77 
9 79 
9 80 
9 82 
9 83 
9 86 
9 88 
9 89 
9 91 
9 95 
9 96 
9 97 
9 99 
9 100 
9 103 
9 105 
9 106 
9 107 
9 113 
10 11 
10 12 
10 13 
10 15 
10 16 
10 20 
10 22 
10 25 
10 30 
10 31 
10 35 
10 38 
10 43 
10 44 
10 45 
10 46 
10 49 
10 50 
10 51 
10 56 
10 58 
10 60 
10 62 
10 66 
10 67 
10 69 
10 70 
10 71 
10 72 
10 73 
10 74 
10 75 
10 76 
10 77 
10 79 
10 82 
10 85 
10 86 
10 88 
10 91 
10 93 
10 94 
10 95 
10 99 
10 102 
10 103 
10 105 
10 109 
10 110 
10 111 
10 112 
10 113 
11 15 
11 18 
11 19 
11 20 
11 22 
11 24 
11 25 
11 27 
11 28 
11 29 
11 30 
11 33 
11 34 
11 35 
11 37 
11 38 
11 40 
11 41 
11 42 
11 43 
11 48 
11 49 
11 53 
11 54 
11 55 
11 56 
11 58 
11 60 
11 62 
11 64 
11 65 
11 66 
11 69 
11 79 
11 81 
11 82 
11 84 
11 85 
11 88 
11 90 
11 91 
11 93 
11 97 
11 98 
11 99 
11 101 
11 102 
11 105 
11 107 
11 108 
11 109 
12 13 
12 14 
12 15 
12 17 
12 18 
12 22 
12 24 
12 27 
12 32 
12 33 
12 37 
12 40 
12 45 
12 46 
12 47 
12 48 
12 51 
12 52 
12 53 
12 58 
12 60 
12 62 
12 64 
12 68 
12 69 
12 71 
12 72 
12 73 
12 74 
12 75 
12 76 
12 77 
12 78 
12 79 
12 81 
12 84 
12 87 
12 88 
12 90 
12 93 
12 95 
12 96 
12 97 
12 101 
12 104 
12 105 
12 107 
12 111 
12 112 
12 113 
13 17 
13 20 
13 21 
13 22 
13 24 
13 26 
13 27 
13 29 
13 30 
13 31 
13 32 
13 35 
13 36 
13 37 
13 39 
13 40 
13 42 
13 43 
13 44 
13 45 
13 50 
13 51 
13 55 
13 56 
13 57 
13 58 
13 60 
13 62 
13 64 
13 66 
13 67 
13 68 
13 71 
13 81 
13 83 
13 84 
13 86 
13 87 
13 90 
13 92 
13 93 
13 95 
13 99 
13 100 
13 101 
13 103 
13 104 
13 107 
13 109 
13 110 
13 111 
14 15 
14 16 
14 17 
14 19 
14 20 
14 24 
14 26 
14 29 
14 34 
14 35 
14 39 
14 42 
14 47 
14 48 
14 49 
14 50 
14 53 
14 54 
14 55 
14 60 
14 62 
14 64 
14 66 
14 70 
14 71 
14 73 
14 74 
14 75 
14 76 
14 77 
14 78 
14 79 
14 80 
14 81 
14 83 
14 86 
14 89 
14 90 
14 92 
14 95 
14 97 
14 98 
14 99 
14 103 
14 106 
14 107 
14 109 
14 113 
15 19 
15 22 
15 23 
15 24 
15 26 
15 28 
15 29 
15 31 
15 32 
15 33 
15 34 
15 37 
15 38 
15 39 
15 41 
15 42 
15 44 
15 45 
15 46 
15 47 
15 52 
15 53 
15 57 
15 58 
15 59 
15 60 
15 62 
15 64 
15 66 
15 68 
15 69 
15 70 
15 73 
15 83 
15 85 
15 86 
15 88 
15 89 
15 92 
15 94 
15 95 
15 97 
15 101 
15 102 
15 103 
15 105 
15 106 
15 109 
15 111 
15 112 
15 113 
16 17 
16 18 
16 19 
16 21 
16 22 
16 26 
16 28 
16 31 
16 36 
16 37 
16 41 
16 44 
16 49 
16 50 
16 51 
16 52 
16 55 
16 56 
16 57 
16 62 
16 64 
16 66 
16 68 
16 72 
16 73 
16 75 
16 76 
16 77 
16 78 
16 79 
16 80 
16 81 
16 82 
16 83 
16 85 
16 88 
16 91 
16 92 
16 94 
16 97 
16 99 
16 100 
16 101 
16 105 
16 108 
16 109 
16 111 
17 21 
17 24 
17 25 
17 26 
17 28 
17 30 
17 31 
17 33 
17 34 
17 35 
17 36 
17 39 
17 40 
17 41 
17 43 
17 44 
17 46 
17 47 
17 48 
17 49 
17 54 
17 55 
17 59 
17 60 
17 61 
17 62 
17 64 
17 66 
17 68 
17 70 
17 71 
17 72 
17 75 
17 85 
17 87 
17 88 
17 90 
17 91 
17 94 
17 96 
17 97 
17 99 
17 103 
17 104 
17 105 
17 107 
17 108 
17 111 
17 113 
18 19 
18 20 
18 21 
18 23 
18 24 
18 28 
18 30 
18 33 
18 38 
18 39 
18 43 
18 46 
18 51 
18 52 
18 53 
18 54 
18 57 
18 58 
18 59 
18 64 
18 66 
18 68 
18 70 
18 74 
18 75 
18 77 
18 78 
18 79 
18 80 
18 81 
18 82 
18 83 
18 84 
18 85 
18 87 
18 90 
18 93 
18 94 
18 96 
18 99 
18 101 
18 102 
18 103 
18 107 
18 110 
18 111 
18 113 
19 23 
19 26 
19 27 
19 28 
19 30 
19 32 
19 33 
19 35 
19 36 
19 37 
19 38 
19 41 
19 42 
19 43 
19 45 
19 46 
19 48 
19 49 
19 50 
19 51 
19 56 
19 57 
19 61 
19 62 
19 63 
19 64 
19 66 
19 68 
19 70 
19 72 
19 73 
19 74 
19 77 
19 87 
19 89 
19 90 
19 92 
19 93 
19 96 
19 98 
19 99 
19 101 
19 105 
19 106 
19 107 
19 109 
19 110 
19 113 
20 21 
20 22 
20 23 
20 25 
20 26 
20 30 
20 32 
20 35 
20 40 
20 41 
20 45 
20 48 
20 53 
20 54 
20 55 
20 56 
20 59 
20 60 
20 61 
20 66 
20 68 
20 70 
20 72 
20 76 
20 77 
20 79 
20 80 
20 81 
20 82 
20 83 
20 84 
20 85 
20 86 
20 87 
20 89 
20 92 
20 95 
20 96 
20 98 
20 101 
20 103 
20 104 
20 105 
20 109 
20 112 
20 113 
21 25 
21 28 
21 29 
21 30 
21 32 
21 34 
21 35 
21 37 
21 38 
21 39 
21 40 
21 43 
21 44 
21 45 
21 47 
21 48 
21 50 
21 51 
21 52 
21 53 
21 58 
21 59 
21 63 
21 64 
21 65 
21 66 
21 68 
21 70 
21 72 
21 74 
21 75 
21 76 
21 79 
21 89 
21 91 
21 92 
21 94 
21 95 
21 98 
21 100 
21 101 
21 103 
21 107 
21 108 
21 109 
21 111 
21 112 
22 23 
22 24 
22 25 
22 27 
22 28 
22 32 
22 34 
22 37 
22 42 
22 43 
22 47 
22 50 
22 55 
22 56 
22 57 
22 58 
22 61 
22 62 
22 63 
22 68 
22 70 
22 72 
22 74 
22 78 
22 79 
22 81 
22 82 
22 83 
22 84 
22 85 
22 86 
22 87 
22 88 
22 89 
22 91 
22 94 
22 97 
22 98 
22 100 
22 103 
22 105 
22 106 
22 107 
22 111 
23 27 
23 30 
23 31 
23 32 
23 34 
23 36 
23 37 
23 39 
23 40 
23 41 
23 42 
23 45 
23 46 
23 47 
23 49 
23 50 
23 52 
23 53 
23 54 
23 55 
23 60 
23 61 
23 65 
23 66 
23 67 
23 68 
23 70 
23 72 
23 74 
23 76 
23 77 
23 78 
23 81 
23 91 
23 93 
23 94 
23 96 
23 97 
23 100 
23 102 
23 103 
23 105 
23 109 
23 110 
23 111 
23 113 
24 25 
24 26 
24 27 
24 29 
24 30 
24 34 
24 36 
24 39 
24 44 
24 45 
24 49 
24 52 
24 57 
24 58 
24 59 
24 60 
24 63 
24 64 
24 65 
24 70 
24 72 
24 74 
24 76 
24 80 
24 81 
24 83 
24 84 
24 85 
24 86 
24 87 
24 88 
24 89 
24 90 
24 91 
24 93 
24 96 
24 99 
24 100 
24 102 
24 105 
24 107 
24 108 
24 109 
24 113 
25 29 
25 32 
25 33 
25 34 
25 36 
25 38 
25 39 
25 41 
25 42 
25 43 
25 44 
25 47 
25 48 
25 49 
25 51 
25 52 
25 54 
25 55 
25 56 
25 57 
25 62 
25 63 
25 67 
25 68 
25 69 
25 70 
25 72 
25 74 
25 76 
25 78 
25 79 
25 80 
25 83 
25 93 
25 95 
25 96 
25 98 
25 99 
25 102 
25 104 
25 105 
25 107 
25 111 
25 112 
25 113 
26 27 
26 28 
26 29 
26 31 
26 32 
26 36 
26 38 
26 41 
26 46 
26 47 
26 51 
26 54 
26 59 
26 60 
26 61 
26 62 
26 65 
26 66 
26 67 
26 72 
26 74 
26 76 
26 78 
26 82 
26 83 
26 85 
26 86 
26 87 
26 88 
26 89 
26 90 
26 91 
26 92 
26 93 
26 95 
26 98 
26 101 
26 102 
26 104 
26 107 
26 109 
26 110 
26 111 
27 31 
27 34 
27 35 
27 36 
27 38 
27 40 
27 41 
27 43 
27 44 
27 45 
27 46 
27 49 
27 50 
27 51 
27 53 
27 54 
27 56 
27 57 
27 58 
27 59 
27 64 
27 65 
27 69 
27 70 
27 71 
27 72 
27 74 
27 76 
27 78 
27 80 
27 81 
27 82 
27 85 
27 95 
27 97 
27 98 
27 100 
27 101 
27 104 
27 106 
27 107 
27 109 
27 113 
28 29 
28 30 
28 31 
28 33 
28 34 
28 38 
28 40 
28 43 
28 48 
28 49 
28 53 
28 56 
28 61 
28 62 
28 63 
28 64 
28 67 
28 68 
28 69 
28 74 
28 76 
28 78 
28 80 
28 84 
28 85 
28 87 
28 88 
28 89 
28 90 
28 91 
28 92 
28 93 
28 94 
28 95 
28 97 
28 100 
28 103 
28 104 
28 106 
28 109 
28 111 
28 112 
28 113 
29 33 
29 36 
29 37 
29 38 
29 40 
29 42 
29 43 
29 45 
29 46 
29 47 
29 48 
29 51 
29 52 
29 53 
29 55 
29 56 
29 58 
29 59 
29 60 
29 61 
29 66 
29 67 
29 71 
29 72 
29 73 
29 74 
29 76 
29 78 
29 80 
29 82 
29 83 
29 84 
29 87 
29 97 
29 99 
29 100 
29 102 
29 103 
29 106 
29 108 
29 109 
29 111 
30 31 
30 32 
30 33 
30 35 
30 36 
30 40 
30 42 
30 45 
30 50 
30 51 
30 55 
30 58 
30 63 
30 64 
30 65 
30 66 
30 69 
30 70 
30 71 
30 76 
30 78 
30 80 
30 82 
30 86 
30 87 
30 89 
30 90 
30 91 
30 92 
30 93 
30 94 
30 95 
30 96 
30 97 
30 99 
30 102 
30 105 
30 106 
30 108 
30 111 
30 113 
31 35 
31 38 
31 39 
31 40 
31 42 
31 44 
31 45 
31 47 
31 48 
31 49 
31 50 
31 53 
31 54 
31 55 
31 57 
31 58 
31 60 
31 61 
31 62 
31 63 
31 68 
31 69 
31 73 
31 74 
31 75 
31 76 
31 78 
31 80 
31 82 
31 84 
31 85 
31 86 
31 89 
31 99 
31 101 
31 102 
31 104 
31 105 
31 108 
31 110 
31 111 
31 113 
32 33 
32 34 
32 35 
32 37 
32 38 
32 42 
32 44 
32 47 
32 52 
32 53 
32 57 
32 60 
32 65 
32 66 
32 67 
32 68 
32 71 
32 72 
32 73 
32 78 
32 80 
32 82 
32 84 
32 88 
32 89 
32 91 
32 92 
32 93 
32 94 
32 95 
32 96 
32 97 
32 98 
32 99 
32 101 
32 104 
32 107 
32 108 
32 110 
32 113 
33 37 
33 40 
33 41 
33 42 
33 44 
33 46 
33 47 
33 49 
33 50 
33 51 
33 52 
33 55 
33 56 
33 57 
33 59 
33 60 
33 62 
33 63 
33 64 
33 65 
33 70 
33 71 
33 75 
33 76 
33 77 
33 78 
33 80 
33 82 
33 84 
33 86 
33 87 
33 88 
33 91 
33 101 
33 103 
33 104 
33 106 
33 107 
33 110 
33 112 
33 113 
34 35 
34 36 
34 37 
34 39 
34 40 
34 44 
34 46 
34 49 
34 54 
34 55 
34 59 
34 62 
34 67 
34 68 
34 69 
34 70 
34 73 
34 74 
34 75 
34 80 
34 82 
34 84 
34 86 
34 90 
34 91 
34 93 
34 94 
34 95 
34 96 
34 97 
34 98 
34 99 
34 100 
34 101 
34 103 
34 106 
34 109 
34 110 
34 112 
35 39 
35 42 
35 43 
35 44 
35 46 
35 48 
35 49 
35 51 
35 52 
35 53 
35 54 
35 57 
35 58 
35 59 
35 61 
35 62 
35 64 
35 65 
35 66 
35 67 
35 72 
35 73 
35 77 
35 78 
35 79 
35 80 
35 82 
35 84 
35 86 
35 88 
35 89 
35 90 
35 93 
35 103 
35 105 
35 106 
35 108 
35 109 
35 112 
36 37 
36 38 
36 39 
36 41 
36 42 
36 46 
36 48 
36 51 
36 56 
36 57 
36 61 
36 64 
36 69 
36 70 
36 71 
36 72 
36 75 
36 76 
36 77 
36 82 
36 84 
36 86 
36 88 
36 92 
36 93 
36 95 
36 96 
36 97 
36 98 
36 99 
36 100 
36 101 
36 102 
36 103 
36 105 
36 108 
36 111 
36 112 
37 41 
37 44 
37 45 
37 46 
37 48 
37 50 
37 51 
37 53 
37 54 
37 55 
37 56 
37 59 
37 60 
37 61 
37 63 
37 64 
37 66 
37 67 
37 68 
37 69 
37 74 
37 75 
37 79 
37 80 
37 81 
37 82 
37 84 
37 86 
37 88 
37 90 
37 91 
37 92 
37 95 
37 105 
37 107 
37 108 
37 110 
37 111 
38 39 
38 40 
38 41 
38 43 
38 44 
38 48 
38 50 
38 53 
38 58 
38 59 
38 63 
38 66 
38 71 
38 72 
38 73 
38 74 
38 77 
38 78 
38 79 
38 84 
38 86 
38 88 
38 90 
38 94 
38 95 
38 97 
38 98 
38 99 
38 100 
38 101 
38 102 
38 103 
38 104 
38 105 
38 107 
38 110 
38 113 
39 43 
39 46 
39 47 
39 48 
39 50 
39 52 
39 53 
39 55 
39 56 
39 57 
39 58 
39 61 
39 62 
39 63 
39 65 
39 66 
39 68 
39 69 
39 70 
39 71 
39 76 
39 77 
39 81 
39 82 
39 83 
39 84 
39 86 
39 88 
39 90 
39 92 
39 93 
39 94 
39 97 
39 107 
39 109 
39 110 
39 112 
39 113 
40 41 
40 42 
40 43 
40 45 
40 46 
40 50 
40 52 
40 55 
40 60 
40 61 
40 65 
40 68 
40 73 
40 74 
40 75 
40 76 
40 79 
40 80 
40 81 
40 86 
40 88 
40 90 
40 92 
40 96 
40 97 
40 99 
40 100 
40 101 
40 102 
40 103 
40 104 
40 105 
40 106 
40 107 
40 109 
40 112 
41 45 
41 48 
41 49 
41 50 
41 52 
41 54 
41 55 
41 57 
41 58 
41 59 
41 60 
41 63 
41 64 
41 65 
41 67 
41 68 
41 70 
41 71 
41 72 
41 73 
41 78 
41 79 
41 83 
41 84 
41 85 
41 86 
41 88 
41 90 
41 92 
41 94 
41 95 
41 96 
41 99 
41 109 
41 111 
41 112 
42 43 
42 44 
42 45 
42 47 
42 48 
42 52 
42 54 
42 57 
42 62 
42 63 
42 67 
42 70 
42 75 
42 76 
42 77 
42 78 
42 81 
42 82 
42 83 
42 88 
42 90 
42 92 
42 94 
42 98 
42 99 
42 101 
42 102 
42 103 
42 104 
42 105 
42 106 
42 107 
42 108 
42 109 
42 111 
43 47 
43 50 
43 51 
43 52 
43 54 
43 56 
43 57 
43 59 
43 60 
43 61 
43 62 
43 65 
43 66 
43 67 
43 69 
43 70 
43 72 
43 73 
43 74 
43 75 
43 80 
43 81 
43 85 
43 86 
43 87 
43 88 
43 90 
43 92 
43 94 
43 96 
43 97 
43 98 
43 101 
43 111 
43 113 
44 45 
44 46 
44 47 
44 49 
44 50 
44 54 
44 56 
44 59 
44 64 
44 65 
44 69 
44 72 
44 77 
44 78 
44 79 
44 80 
44 83 
44 84 
44 85 
44 90 
44 92 
44 94 
44 96 
44 100 
44 101 
44 103 
44 104 
44 105 
44 106 
44 107 
44 108 
44 109 
44 110 
44 111 
44 113 
45 49 
45 52 
45 53 
45 54 
45 56 
45 58 
45 59 
45 61 
45 62 
45 63 
45 64 
45 67 
45 68 
45 69 
45 71 
45 72 
45 74 
45 75 
45 76 
45 77 
45 82 
45 83 
45 87 
45 88 
45 89 
45 90 
45 92 
45 94 
45 96 
45 98 
45 99 
45 100 
45 103 
45 113 
46 47 
46 48 
46 49 
46 51 
46 52 
46 56 
46 58 
46 61 
46 66 
46 67 
46 71 
46 74 
46 79 
46 80 
46 81 
46 82 
46 85 
46 86 
46 87 
46 92 
46 94 
46 96 
46 98 
46 102 
46 103 
46 105 
46 106 
46 107 
46 108 
46 109 
46 110 
46 111 
46 112 
46 113 
47 51 
47 54 
47 55 
47 56 
47 58 
47 60 
47 61 
47 63 
47 64 
47 65 
47 66 
47 69 
47 70 
47 71 
47 73 
47 74 
47 76 
47 77 
47 78 
47 79 
47 84 
47 85 
47 89 
47 90 
47 91 
47 92 
47 94 
47 96 
47 98 
47 100 
47 101 
47 102 
47 105 
48 49 
48 50 
48 51 
48 53 
48 54 
48 58 
48 60 
48 63 
48 68 
48 69 
48 73 
48 76 
48 81 
48 82 
48 83 
48 84 
48 87 
48 88 
48 89 
48 94 
48 96 
48 98 
48 100 
48 104 
48 105 
48 107 
48 108 
48 109 
48 110 
48 111 
48 112 
48 113 
49 53 
49 56 
49 57 
49 58 
49 60 
49 62 
49 63 
49 65 
49 66 
49 67 
49 68 
49 71 
49 72 
49 73 
49 75 
49 76 
49 78 
49 79 
49 80 
49 81 
49 86 
49 87 
49 91 
49 92 
49 93 
49 94 
49 96 
49 98 
49 100 
49 102 
49 103 
49 104 
49 107 
50 51 
50 52 
50 53 
50 55 
50 56 
50 60 
50 62 
50 65 
50 70 
50 71 
50 75 
50 78 
50 83 
50 84 
50 85 
50 86 
50 89 
50 90 
50 91 
50 96 
50 98 
50 100 
50 102 
50 106 
50 107 
50 109 
50 110 
50 111 
50 112 
50 113 
51 55 
51 58 
51 59 
51 60 
51 62 
51 64 
51 65 
51 67 
51 68 
51 69 
51 70 
51 73 
51 74 
51 75 
51 77 
51 78 
51 80 
51 81 
51 82 
51 83 
51 88 
51 89 
51 93 
51 94 
51 95 
51 96 
51 98 
51 100 
51 102 
51 104 
51 105 
51 106 
51 109 
52 53 
52 54 
52 55 
52 57 
52 58 
52 62 
52 64 
52 67 
52 72 
52 73 
52 77 
52 80 
52 85 
52 86 
52 87 
52 88 
52 91 
52 92 
52 93 
52 98 
52 100 
52 102 
52 104 
52 108 
52 109 
52 111 
52 112 
52 113 
53 57 
53 60 
53 61 
53 62 
53 64 
53 66 
53 67 
53 69 
53 70 
53 71 
53 72 
53 75 
53 76 
53 77 
53 79 
53 80 
53 82 
53 83 
53 84 
53 85 
53 90 
53 91 
53 95 
53 96 
53 97 
53 98 
53 100 
53 102 
53 104 
53 106 
53 107 
53 108 
53 111 
54 55 
54 56 
54 57 
54 59 
54 60 
54 64 
54 66 
54 69 
54 74 
54 75 
54 79 
54 82 
54 87 
54 88 
54 89 
54 90 
54 93 
54 94 
54 95 
54 100 
54 102 
54 104 
54 106 
54 110 
54 111 
54 113 
55 59 
55 62 
55 63 
55 64 
55 66 
55 68 
55 69 
55 71 
55 72 
55 73 
55 74 
55 77 
55 78 
55 79 
55 81 
55 82 
55 84 
55 85 
55 86 
55 87 
55 92 
55 93 
55 97 
55 98 
55 99 
55 100 
55 102 
55 104 
55 106 
55 108 
55 109 
55 110 
55 113 
56 57 
56 58 
56 59 
56 61 
56 62 
56 66 
56 68 
56 71 
56 76 
56 77 
56 81 
56 84 
56 89 
56 90 
56 91 
56 92 
56 95 
56 96 
56 97 
56 102 
56 104 
56 106 
56 108 
56 112 
56 113 
57 61 
57 64 
57 65 
57 66 
57 68 
57 70 
57 71 
57 73 
57 74 
57 75 
57 76 
57 79 
57 80 
57 81 
57 83 
57 84 
57 86 
57 87 
57 88 
57 89 
57 94 
57 95 
57 99 
57 100 
57 101 
57 102 
57 104 
57 106 
57 108 
57 110 
57 111 
57 112 
58 59 
58 60 
58 61 
58 63 
58 64 
58 68 
58 70 
58 73 
58 78 
58 79 
58 83 
58 86 
58 91 
58 92 
58 93 
58 94 
58 97 
58 98 
58 99 
58 104 
58 106 
58 108 
58 110 
59 63 
59 66 
59 67 
59 68 
59 70 
59 72 
59 73 
59 75 
59 76 
59 77 
59 78 
59 81 
59 82 
59 83 
59 85 
59 86 
59 88 
59 89 
59 90 
59 91 
59 96 
59 97 
59 101 
59 102 
59 103 
59 104 
59 106 
59 108 
59 110 
59 112 
59 113 
60 61 
60 62 
60 63 
60 65 
60 66 
60 70 
60 72 
60 75 
60 80 
60 81 
60 85 
60 88 
60 93 
60 94 
60 95 
60 96 
60 99 
60 100 
60 101 
60 106 
60 108 
60 110 
60 112 
61 65 
61 68 
61 69 
61 70 
61 72 
61 74 
61 75 
61 77 
61 78 
61 79 
61 80 
61 83 
61 84 
61 85 
61 87 
61 88 
61 90 
61 91 
61 92 
61 93 
61 98 
61 99 
61 103 
61 104 
61 105 
61 106 
61 108 
61 110 
61 112 
62 63 
62 64 
62 65 
62 67 
62 68 
62 72 
62 74 
62 77 
62 82 
62 83 
62 87 
62 90 
62 95 
62 96 
62 97 
62 98 
62 101 
62 102 
62 103 
62 108 
62 110 
62 112 
63 67 
63 70 
63 71 
63 72 
63 74 
63 76 
63 77 
63 79 
63 80 
63 81 
63 82 
63 85 
63 86 
63 87 
63 89 
63 90 
63 92 
63 93 
63 94 
63 95 
63 100 
63 101 
63 105 
63 106 
63 107 
63 108 
63 110 
63 112 
64 65 
64 66 
64 67 
64 69 
64 70 
64 74 
64 76 
64 79 
64 84 
64 85 
64 89 
64 92 
64 97 
64 98 
64 99 
64 100 
64 103 
64 104 
64 105 
64 110 
64 112 
65 69 
65 72 
65 73 
65 74 
65 76 
65 78 
65 79 
65 81 
65 82 
65 83 
65 84 
65 87 
65 88 
65 89 
65 91 
65 92 
65 94 
65 95 
65 96 
65 97 
65 102 
65 103 
65 107 
65 108 
65 109 
65 110 
65 112 
66 67 
66 68 
66 69 
66 71 
66 72 
66 76 
66 78 
66 81 
66 86 
66 87 
66 91 
66 94 
66 99 
66 100 
66 101 
66 102 
66 105 
66 106 
66 107 
66 112 
67 71 
67 74 
67 75 
67 76 
67 78 
67 80 
67 81 
67 83 
67 84 
67 85 
67 86 
67 89 
67 90 
67 91 
67 93 
67 94 
67 96 
67 97 
67 98 
67 99 
67 104 
67 105 
67 109 
67 110 
67 111 
67 112 
68 69 
68 70 
68 71 
68 73 
68 74 
68 78 
68 80 
68 83 
68 88 
68 89 
68 93 
68 96 
68 101 
68 102 
68 103 
68 104 
68 107 
68 108 
68 109 
69 73 
69 76 
69 77 
69 78 
69 80 
69 82 
69 83 
69 85 
69 86 
69 87 
69 88 
69 91 
69 92 
69 93 
69 95 
69 96 
69 98 
69 99 
69 100 
69 101 
69 106 
69 107 
69 111 
69 112 
69 113 
70 71 
70 72 
70 73 
70 75 
70 76 
70 80 
70 82 
70 85 
70 90 
70 91 
70 95 
70 98 
70 103 
70 104 
70 105 
70 106 
70 109 
70 110 
70 111 
71 75 
71 78 
71 79 
71 80 
71 82 
71 84 
71 85 
71 87 
71 88 
71 89 
71 90 
71 93 
71 94 
71 95 
71 97 
71 98 
71 100 
71 101 
71 102 
71 103 
71 108 
71 109 
71 113 
72 73 
72 74 
72 75 
72 77 
72 78 
72 82 
72 84 
72 87 
72 92 
72 93 
72 97 
72 100 
72 105 
72 106 
72 107 
72 108 
72 111 
72 112 
72 113 
73 77 
73 80 
73 81 
73 82 
73 84 
73 86 
73 87 
73 89 
73 90 
73 91 
73 92 
73 95 
73 96 
73 97 
73 99 
73 100 
73 102 
73 103 
73 104 
73 105 
73 110 
73 111 
74 75 
74 76 
74 77 
74 79 
74 80 
74 84 
74 86 
74 89 
74 94 
74 95 
74 99 
74 102 
74 107 
74 108 
74 109 
74 110 
74 113 
75 79 
75 82 
75 83 
75 84 
75 86 
75 88 
75 89 
75 91 
75 92 
75 93 
75 94 
75 97 
75 98 
75 99 
75 101 
75 102 
75 104 
75 105 
75 106 
75 107 
75 112 
75 113 
76 77 
76 78 
76 79 
76 81 
76 82 
76 86 
76 88 
76 91 
76 96 
76 97 
76 101 
76 104 
76 109 
76 110 
76 111 
76 112 
77 81 
77 84 
77 85 
77 86 
77 88 
77 90 
77 91 
77 93 
77 94 
77 95 
77 96 
77 99 
77 100 
77 101 
77 103 
77 104 
77 106 
77 107 
77 108 
77 109 
78 79 
78 80 
78 81 
78 83 
78 84 
78 88 
78 90 
78 93 
78 98 
78 99 
78 103 
78 106 
78 111 
78 112 
78 113 
79 83 
79 86 
79 87 
79 88 
79 90 
79 92 
79 93 
79 95 
79 96 
79 97 
79 98 
79 101 
79 102 
79 103 
79 105 
79 106 
79 108 
79 109 
79 110 
79 111 
80 81 
80 82 
80 83 
80 85 
80 86 
80 90 
80 92 
80 95 
80 100 
80 101 
80 105 
80 108 
80 113 
81 85 
81 88 
81 89 
81 90 
81 92 
81 94 
81 95 
81 97 
81 98 
81 99 
81 100 
81 103 
81 104 
81 105 
81 107 
81 108 
81 110 
81 111 
81 112 
81 113 
82 83 
82 84 
82 85 
82 87 
82 88 
82 92 
82 94 
82 97 
82 102 
82 103 
82 107 
82 110 
83 87 
83 90 
83 91 
83 92 
83 94 
83 96 
83 97 
83 99 
83 100 
83 101 
83 102 
83 105 
83 106 
83 107 
83 109 
83 110 
83 112 
83 113 
84 85 
84 86 
84 87 
84 89 
84 90 
84 94 
84 96 
84 99 
84 104 
84 105 
84 109 
84 112 
85 89 
85 92 
85 93 
85 94 
85 96 
85 98 
85 99 
85 101 
85 102 
85 103 
85 104 
85 107 
85 108 
85 109 
85 111 
85 112 
86 87 
86 88 
86 89 
86 91 
86 92 
86 96 
86 98 
86 101 
86 106 
86 107 
86 111 
87 91 
87 94 
87 95 
87 96 
87 98 
87 100 
87 101 
87 103 
87 104 
87 105 
87 106 
87 109 
87 110 
87 111 
87 113 
88 89 
88 90 
88 91 
88 93 
88 94 
88 98 
88 100 
88 103 
88 108 
88 109 
88 113 
89 93 
89 96 
89 97 
89 98 
89 100 
89 102 
89 103 
89 105 
89 106 
89 107 
89 108 
89 111 
89 112 
89 113 
90 91 
90 92 
90 93 
90 95 
90 96 
90 100 
90 102 
90 105 
90 110 
90 111 
91 95 
91 98 
91 99 
91 100 
91 102 
91 104 
91 105 
91 107 
91 108 
91 109 
91 110 
91 113 
92 93 
92 94 
92 95 
92 97 
92 98 
92 102 
92 104 
92 107 
92 112 
92 113 
93 97 
93 100 
93 101 
93 102 
93 104 
93 106 
93 107 
93 109 
93 110 
93 111 
93 112 
94 95 
94 96 
94 97 
94 99 
94 100 
94 104 
94 106 
94 109 
95 99 
95 102 
95 103 
95 104 
95 106 
95 108 
95 109 
95 111 
95 112 
95 113 
96 97 
96 98 
96 99 
96 101 
96 102 
96 106 
96 108 
96 111 
97 101 
97 104 
97 105 
97 106 
97 108 
97 110 
97 111 
97 113 
98 99 
98 100 
98 101 
98 103 
98 104 
98 108 
98 110 
98 113 
99 103 
99 106 
99 107 
99 108 
99 110 
99 112 
99 113 
100 101 
100 102 
100 103 
100 105 
100 106 
100 110 
100 112 
101 105 
101 108 
101 109 
101 110 
101 112 
102 103 
102 104 
102 105 
102 107 
102 108 
102 112 
103 107 
103 110 
103 111 
103 112 
104 105 
104 106 
104 107 
104 109 
104 110 
105 109 
105 112 
105 113 
106 107 
106 108 
106 109 
106 111 
106 112 
107 111 
108 109 
108 110 
108 111 
108 113 
109 113 
110 111 
110 112 
110 113 
112 113 
